unsat
((set-logic NIA)
(declare-fun q!2 () Int)
(declare-fun r!1 () Int)
(declare-fun y!0 () Int)
(proof
(let ((?x111 (* y00 q00)))
 (let ((?x650 (+ r00 ?x111 (* (- 1) r!1) (* (- 1) (* y00 q!2)))))
 (let (($x367 (<= ?x650 0)))
 (let (($x444 (= ?x650 0)))
 (let ((?x109 (* (- 1) y00)))
 (let ((?x188 (+ ?x109 r!1)))
 (let ((?x586 (+ 1 q!2)))
 (let ((?x557 (* q00 y00 y00 y00 ?x586 ?x586 ?x586 ?x586 ?x586 ?x586 ?x188 ?x188 ?x188)))
 (let ((?x558 (* (- 1) (* q00 y00 ?x586 ?x586 ?x586 ?x586 ?x586 ?x586 ?x188 ?x188 ?x188))))
 (let ((?x158 (* (- 1) (* r00 ?x586 ?x586 ?x586 ?x586 ?x586 ?x586 ?x188 ?x188 ?x188 ?x188))))
 (let ((?x515 (* y00 y00 y00 ?x586 ?x586 ?x586 ?x586 ?x586 ?x586 ?x586 ?x188 ?x188 ?x188)))
 (let ((?x494 (* q00 y00 y00 ?x586 ?x586 ?x586 ?x586 ?x586 ?x586 ?x188 ?x188 ?x188 ?x188)))
 (let ((?x486 (* y00 ?x586 ?x586 ?x586 ?x586 ?x586 ?x586 ?x188 ?x188 ?x188 ?x188 ?x188 ?x188)))
 (let ((?x394 (* r00 y00 ?x586 ?x586 ?x586 ?x586 ?x586 ?x586 ?x188 ?x188 ?x188 ?x188 ?x188)))
 (let ((?x386 (* y00 y00 ?x586 ?x586 ?x586 ?x586 ?x586 ?x586 ?x586 ?x188 ?x188 ?x188 ?x188)))
 (let ((?x385 (* (- 1) (* r00 y00 ?x586 ?x586 ?x586 ?x586 ?x586 ?x586 ?x188 ?x188 ?x188 ?x188))))
 (let ((?x677 (* (- 1) (* q00 y00 y00 ?x586 ?x586 ?x586 ?x586 ?x586 ?x586 ?x188 ?x188))))
 (let ((?x176 (* (- 1) (* q00 y00 ?x586 ?x586 ?x586 ?x586 ?x586 ?x586 ?x188 ?x188 ?x188 ?x188))))
 (let ((?x191 (* y00 y00 ?x586 ?x586 ?x586 ?x586 ?x586 ?x586 ?x586 ?x188 ?x188 ?x188 ?x188 ?x188)))
 (let ((?x330 (* (- 1) (* q00 y00 y00 y00 ?x586 ?x586 ?x586 ?x586 ?x586 ?x586 ?x188 ?x188))))
 (let ((?x545 (* (- 1) (* r00 y00 y00 ?x586 ?x586 ?x586 ?x586 ?x586 ?x586 ?x188 ?x188 ?x188))))
 (let ((?x135 (* q00 y00 y00 ?x586 ?x586 ?x586 ?x586 ?x586 ?x586 ?x188 ?x188 ?x188 ?x188 ?x188)))
 (let ((?x393 (* (- 1) (* r00 y00 y00 ?x586 ?x586 ?x586 ?x586 ?x586 ?x586 ?x188 ?x188))))
 (let ((?x400 (+ (* y00 ?x586 ?x586 ?x586 ?x586 ?x586 ?x586 ?x586 ?x188 ?x188 ?x188) ?x393 (* (- 1) ?x135) (* (- 1) (* r00 y00 ?x586 ?x586 ?x586 ?x586 ?x586 ?x586 ?x188)) (* ?x586 ?x586 ?x586 ?x586 ?x586 ?x586 ?x188 ?x188 ?x188 ?x188) ?x545 ?x330 ?x191 (* y00 y00 ?x586 ?x586 ?x586 ?x586 ?x586 ?x586 ?x188 ?x188 ?x188 ?x188) (* y00 ?x586 ?x586 ?x586 ?x586 ?x586 ?x586 ?x188 ?x188 ?x188 ?x188 ?x188) (* y00 y00 y00 ?x586 ?x586 ?x586 ?x586 ?x586 ?x586 ?x586 ?x188 ?x188) (* y00 y00 ?x586 ?x586 ?x586 ?x586 ?x586 ?x586 ?x188 ?x188 ?x188) (* y00 y00 ?x586 ?x586 ?x586 ?x586 ?x586 ?x586 ?x586 ?x188 ?x188) (* (- 1) (* r00 y00 ?x586 ?x586 ?x586 ?x586 ?x586 ?x586 ?x188 ?x188)) (* y00 ?x586 ?x586 ?x586 ?x586 ?x586 ?x586 ?x586 ?x188 ?x188 ?x188 ?x188) ?x176 (* y00 ?x586 ?x586 ?x586 ?x586 ?x586 ?x586 ?x188 ?x188 ?x188) (* ?x586 ?x586 ?x586 ?x586 ?x586 ?x586 ?x188 ?x188 ?x188 ?x188 ?x188) ?x677 ?x385 ?x386 (* (- 1) ?x394) ?x486 (* (- 1) ?x494) (* (- 1) (* q00 y00 y00 ?x586 ?x586 ?x586 ?x586 ?x586 ?x586 ?x188)) ?x515 ?x158 ?x558 (* (- 1) ?x557) (* y00 y00 ?x586 ?x586 ?x586 ?x586 ?x586 ?x586 ?x586 ?x188) (* (- 1) (* r00 ?x586 ?x586 ?x586 ?x586 ?x586 ?x586 ?x188 ?x188 ?x188)) (* y00 ?x586 ?x586 ?x586 ?x586 ?x586 ?x586 ?x188 ?x188))))
 (let (($x186 (= ?x400 0)))
 (let (($x180 (not $x186)))
 (let ((?x177 (+ y00 (* (- 1) y!0))))
 (let (($x519 (= ?x177 0)))
 (let (($x185 (and $x519 $x444 $x180)))
 (let ((?x541 (+ r!1 ?x109)))
 (let ((?x271 (* r00 y00 ?x586 ?x586 ?x586 ?x586 ?x586 ?x586 ?x541 ?x541 ?x541 ?x541 ?x541)))
 (let ((?x187 (* (- 1) (* r00 y00 y00 ?x586 ?x586 ?x586 ?x586 ?x586 ?x586 ?x541 ?x541))))
 (let ((?x114 (* y00 y00 y00 ?x586 ?x586 ?x586 ?x586 ?x586 ?x586 ?x586 ?x541 ?x541 ?x541)))
 (let ((?x294 (* y00 y00 ?x586 ?x586 ?x586 ?x586 ?x586 ?x586 ?x586 ?x541 ?x541 ?x541 ?x541)))
 (let ((?x295 (* (- 1) (* r00 y00 ?x586 ?x586 ?x586 ?x586 ?x586 ?x586 ?x541 ?x541 ?x541 ?x541))))
 (let ((?x303 (* (- 1) (* q00 y00 ?x586 ?x586 ?x586 ?x586 ?x586 ?x586 ?x541 ?x541 ?x541 ?x541))))
 (let ((?x203 (* q00 y00 y00 ?x586 ?x586 ?x586 ?x586 ?x586 ?x586 ?x541 ?x541 ?x541 ?x541)))
 (let ((?x204 (* y00 y00 ?x586 ?x586 ?x586 ?x586 ?x586 ?x586 ?x586 ?x541 ?x541 ?x541 ?x541 ?x541)))
 (let ((?x228 (* q00 y00 y00 ?x586 ?x586 ?x586 ?x586 ?x586 ?x586 ?x541 ?x541 ?x541 ?x541 ?x541)))
 (let ((?x264 (* q00 y00 y00 y00 ?x586 ?x586 ?x586 ?x586 ?x586 ?x586 ?x541 ?x541 ?x541)))
 (let ((?x205 (* (- 1) (* q00 y00 ?x586 ?x586 ?x586 ?x586 ?x586 ?x586 ?x541 ?x541 ?x541))))
 (let ((?x243 (* (- 1) (* r00 y00 y00 ?x586 ?x586 ?x586 ?x586 ?x586 ?x586 ?x541 ?x541 ?x541))))
 (let ((?x138 (* (- 1) (* q00 y00 y00 ?x586 ?x586 ?x586 ?x586 ?x586 ?x586 ?x541 ?x541))))
 (let ((?x156 (* (- 1) (* r00 ?x586 ?x586 ?x586 ?x586 ?x586 ?x586 ?x541 ?x541 ?x541 ?x541))))
 (let ((?x323 (* y00 ?x586 ?x586 ?x586 ?x586 ?x586 ?x586 ?x541 ?x541 ?x541 ?x541 ?x541 ?x541)))
 (let ((?x290 (* (- 1) (* q00 y00 y00 y00 ?x586 ?x586 ?x586 ?x586 ?x586 ?x586 ?x541 ?x541))))
 (let ((?x232 (+ (* y00 y00 ?x586 ?x586 ?x586 ?x586 ?x586 ?x586 ?x541 ?x541 ?x541 ?x541) ?x290 (* y00 ?x586 ?x586 ?x586 ?x586 ?x586 ?x586 ?x586 ?x541 ?x541 ?x541 ?x541) (* (- 1) (* q00 y00 y00 ?x586 ?x586 ?x586 ?x586 ?x586 ?x586 ?x541)) ?x323 (* (- 1) (* r00 y00 ?x586 ?x586 ?x586 ?x586 ?x586 ?x586 ?x541 ?x541)) ?x156 (* ?x586 ?x586 ?x586 ?x586 ?x586 ?x586 ?x541 ?x541 ?x541 ?x541) (* y00 y00 ?x586 ?x586 ?x586 ?x586 ?x586 ?x586 ?x586 ?x541 ?x541) ?x138 (* y00 ?x586 ?x586 ?x586 ?x586 ?x586 ?x586 ?x541 ?x541) (* y00 y00 y00 ?x586 ?x586 ?x586 ?x586 ?x586 ?x586 ?x586 ?x541 ?x541) ?x243 ?x205 (* (- 1) ?x264) (* y00 y00 ?x586 ?x586 ?x586 ?x586 ?x586 ?x586 ?x586 ?x541) (* (- 1) (* r00 ?x586 ?x586 ?x586 ?x586 ?x586 ?x586 ?x541 ?x541 ?x541)) (* y00 ?x586 ?x586 ?x586 ?x586 ?x586 ?x586 ?x586 ?x541 ?x541 ?x541) (* (- 1) ?x228) (* (- 1) (* r00 y00 ?x586 ?x586 ?x586 ?x586 ?x586 ?x586 ?x541)) ?x204 (* (- 1) ?x203) (* y00 ?x586 ?x586 ?x586 ?x586 ?x586 ?x586 ?x541 ?x541 ?x541 ?x541 ?x541) ?x303 (* ?x586 ?x586 ?x586 ?x586 ?x586 ?x586 ?x541 ?x541 ?x541 ?x541 ?x541) ?x295 ?x294 (* y00 ?x586 ?x586 ?x586 ?x586 ?x586 ?x586 ?x541 ?x541 ?x541) (* y00 y00 ?x586 ?x586 ?x586 ?x586 ?x586 ?x586 ?x541 ?x541 ?x541) ?x114 ?x187 (* (- 1) ?x271))))
 (let (($x202 (and (= (+ y!0 ?x109) 0) (= (+ r!1 (* (- 1) r00) (* q!2 y00) (* (- 1) ?x111)) 0) (not (= ?x232 0)))))
 (let (($x201 (exists ((q Int) (r Int) (y Int) )(! (let ((?x109 (* (- 1) y00)))
 (let ((?x115 (+ r ?x109)))
 (let ((?x107 (+ 1 q)))
 (let ((?x662 (* r00 y00 ?x107 ?x107 ?x107 ?x107 ?x107 ?x107 ?x115 ?x115 ?x115 ?x115 ?x115)))
 (let ((?x670 (* (- 1) ?x662)))
 (let ((?x649 (* (- 1) (* r00 y00 y00 ?x107 ?x107 ?x107 ?x107 ?x107 ?x107 ?x115 ?x115))))
 (let ((?x624 (* y00 y00 y00 ?x107 ?x107 ?x107 ?x107 ?x107 ?x107 ?x107 ?x115 ?x115 ?x115)))
 (let ((?x619 (* y00 y00 ?x107 ?x107 ?x107 ?x107 ?x107 ?x107 ?x115 ?x115 ?x115)))
 (let ((?x611 (* y00 ?x107 ?x107 ?x107 ?x107 ?x107 ?x107 ?x115 ?x115 ?x115)))
 (let ((?x598 (* y00 y00 ?x107 ?x107 ?x107 ?x107 ?x107 ?x107 ?x107 ?x115 ?x115 ?x115 ?x115)))
 (let ((?x547 (* (- 1) (* r00 y00 ?x107 ?x107 ?x107 ?x107 ?x107 ?x107 ?x115 ?x115 ?x115 ?x115))))
 (let ((?x565 (* ?x107 ?x107 ?x107 ?x107 ?x107 ?x107 ?x115 ?x115 ?x115 ?x115 ?x115)))
 (let ((?x305 (* (- 1) (* q00 y00 ?x107 ?x107 ?x107 ?x107 ?x107 ?x107 ?x115 ?x115 ?x115 ?x115))))
 (let ((?x553 (* y00 ?x107 ?x107 ?x107 ?x107 ?x107 ?x107 ?x115 ?x115 ?x115 ?x115 ?x115)))
 (let ((?x518 (* q00 y00 y00 ?x107 ?x107 ?x107 ?x107 ?x107 ?x107 ?x115 ?x115 ?x115 ?x115)))
 (let ((?x507 (* (- 1) ?x518)))
 (let ((?x506 (* y00 y00 ?x107 ?x107 ?x107 ?x107 ?x107 ?x107 ?x107 ?x115 ?x115 ?x115 ?x115 ?x115)))
 (let ((?x491 (* (- 1) (* r00 y00 ?x107 ?x107 ?x107 ?x107 ?x107 ?x107 ?x115))))
 (let ((?x423 (* q00 y00 y00 ?x107 ?x107 ?x107 ?x107 ?x107 ?x107 ?x115 ?x115 ?x115 ?x115 ?x115)))
 (let ((?x427 (* (- 1) ?x423)))
 (let ((?x408 (* y00 ?x107 ?x107 ?x107 ?x107 ?x107 ?x107 ?x107 ?x115 ?x115 ?x115)))
 (let ((?x143 (* (- 1) (* r00 ?x107 ?x107 ?x107 ?x107 ?x107 ?x107 ?x115 ?x115 ?x115))))
 (let ((?x344 (* y00 y00 ?x107 ?x107 ?x107 ?x107 ?x107 ?x107 ?x107 ?x115)))
 (let ((?x324 (* q00 y00 y00 y00 ?x107 ?x107 ?x107 ?x107 ?x107 ?x107 ?x115 ?x115 ?x115)))
 (let ((?x502 (* (- 1) ?x324)))
 (let ((?x179 (* (- 1) (* q00 y00 ?x107 ?x107 ?x107 ?x107 ?x107 ?x107 ?x115 ?x115 ?x115))))
 (let ((?x275 (* (- 1) (* r00 y00 y00 ?x107 ?x107 ?x107 ?x107 ?x107 ?x107 ?x115 ?x115 ?x115))))
 (let ((?x270 (* y00 y00 y00 ?x107 ?x107 ?x107 ?x107 ?x107 ?x107 ?x107 ?x115 ?x115)))
 (let ((?x259 (* y00 ?x107 ?x107 ?x107 ?x107 ?x107 ?x107 ?x115 ?x115)))
 (let ((?x395 (* (- 1) (* q00 y00 y00 ?x107 ?x107 ?x107 ?x107 ?x107 ?x107 ?x115 ?x115))))
 (let ((?x233 (* y00 y00 ?x107 ?x107 ?x107 ?x107 ?x107 ?x107 ?x107 ?x115 ?x115)))
 (let ((?x231 (* ?x107 ?x107 ?x107 ?x107 ?x107 ?x107 ?x115 ?x115 ?x115 ?x115)))
 (let ((?x250 (* (- 1) (* r00 ?x107 ?x107 ?x107 ?x107 ?x107 ?x107 ?x115 ?x115 ?x115 ?x115))))
 (let ((?x162 (* (- 1) (* r00 y00 ?x107 ?x107 ?x107 ?x107 ?x107 ?x107 ?x115 ?x115))))
 (let ((?x189 (* y00 ?x107 ?x107 ?x107 ?x107 ?x107 ?x107 ?x115 ?x115 ?x115 ?x115 ?x115 ?x115)))
 (let ((?x460 (* (- 1) (* q00 y00 y00 ?x107 ?x107 ?x107 ?x107 ?x107 ?x107 ?x115))))
 (let ((?x165 (* y00 ?x107 ?x107 ?x107 ?x107 ?x107 ?x107 ?x107 ?x115 ?x115 ?x115 ?x115)))
 (let ((?x453 (* (- 1) (* q00 y00 y00 y00 ?x107 ?x107 ?x107 ?x107 ?x107 ?x107 ?x115 ?x115))))
 (let ((?x119 (* y00 y00 ?x107 ?x107 ?x107 ?x107 ?x107 ?x107 ?x115 ?x115 ?x115 ?x115)))
 (let ((?x225 (+ ?x119 ?x453 ?x165 ?x460 ?x189 ?x162 ?x250 ?x231 ?x233 ?x395 ?x259 ?x270 ?x275 ?x179 ?x502 ?x344 ?x143 ?x408 ?x427 ?x491 ?x506 ?x507 ?x553 ?x305 ?x565 ?x547 ?x598 ?x611 ?x619 ?x624 ?x649 ?x670)))
 (let (($x141 (= (+ r (* (- 1) r00) (* q y00) (* (- 1) (* y00 q00))) 0)))
 (let (($x118 (= (+ y ?x109) 0)))
 (and $x118 $x141 (not (= ?x225 0))))))))))))))))))))))))))))))))))))))))))))) :qid k!29))
 ))
 (let (($x337 (exists ((q Int) (r Int) (y Int) )(! (let ((?x109 (* (- 1) y00)))
 (let ((?x115 (+ r ?x109)))
 (let ((?x107 (+ 1 q)))
 (let ((?x662 (* r00 y00 ?x107 ?x107 ?x107 ?x107 ?x107 ?x107 ?x115 ?x115 ?x115 ?x115 ?x115)))
 (let ((?x670 (* (- 1) ?x662)))
 (let ((?x649 (* (- 1) (* r00 y00 y00 ?x107 ?x107 ?x107 ?x107 ?x107 ?x107 ?x115 ?x115))))
 (let ((?x565 (* ?x107 ?x107 ?x107 ?x107 ?x107 ?x107 ?x115 ?x115 ?x115 ?x115 ?x115)))
 (let ((?x624 (* y00 y00 y00 ?x107 ?x107 ?x107 ?x107 ?x107 ?x107 ?x107 ?x115 ?x115 ?x115)))
 (let ((?x423 (* q00 y00 y00 ?x107 ?x107 ?x107 ?x107 ?x107 ?x107 ?x115 ?x115 ?x115 ?x115 ?x115)))
 (let ((?x427 (* (- 1) ?x423)))
 (let ((?x408 (* y00 ?x107 ?x107 ?x107 ?x107 ?x107 ?x107 ?x107 ?x115 ?x115 ?x115)))
 (let ((?x395 (* (- 1) (* q00 y00 y00 ?x107 ?x107 ?x107 ?x107 ?x107 ?x107 ?x115 ?x115))))
 (let ((?x250 (* (- 1) (* r00 ?x107 ?x107 ?x107 ?x107 ?x107 ?x107 ?x115 ?x115 ?x115 ?x115))))
 (let ((?x305 (* (- 1) (* q00 y00 ?x107 ?x107 ?x107 ?x107 ?x107 ?x107 ?x115 ?x115 ?x115 ?x115))))
 (let ((?x598 (* y00 y00 ?x107 ?x107 ?x107 ?x107 ?x107 ?x107 ?x107 ?x115 ?x115 ?x115 ?x115)))
 (let ((?x611 (* y00 ?x107 ?x107 ?x107 ?x107 ?x107 ?x107 ?x115 ?x115 ?x115)))
 (let ((?x619 (* y00 y00 ?x107 ?x107 ?x107 ?x107 ?x107 ?x107 ?x115 ?x115 ?x115)))
 (let ((?x553 (* y00 ?x107 ?x107 ?x107 ?x107 ?x107 ?x107 ?x115 ?x115 ?x115 ?x115 ?x115)))
 (let ((?x547 (* (- 1) (* r00 y00 ?x107 ?x107 ?x107 ?x107 ?x107 ?x107 ?x115 ?x115 ?x115 ?x115))))
 (let ((?x518 (* q00 y00 y00 ?x107 ?x107 ?x107 ?x107 ?x107 ?x107 ?x115 ?x115 ?x115 ?x115)))
 (let ((?x507 (* (- 1) ?x518)))
 (let ((?x506 (* y00 y00 ?x107 ?x107 ?x107 ?x107 ?x107 ?x107 ?x107 ?x115 ?x115 ?x115 ?x115 ?x115)))
 (let ((?x491 (* (- 1) (* r00 y00 ?x107 ?x107 ?x107 ?x107 ?x107 ?x107 ?x115))))
 (let ((?x460 (* (- 1) (* q00 y00 y00 ?x107 ?x107 ?x107 ?x107 ?x107 ?x107 ?x115))))
 (let ((?x453 (* (- 1) (* q00 y00 y00 y00 ?x107 ?x107 ?x107 ?x107 ?x107 ?x107 ?x115 ?x115))))
 (let ((?x143 (* (- 1) (* r00 ?x107 ?x107 ?x107 ?x107 ?x107 ?x107 ?x115 ?x115 ?x115))))
 (let ((?x165 (* y00 ?x107 ?x107 ?x107 ?x107 ?x107 ?x107 ?x107 ?x115 ?x115 ?x115 ?x115)))
 (let ((?x179 (* (- 1) (* q00 y00 ?x107 ?x107 ?x107 ?x107 ?x107 ?x107 ?x115 ?x115 ?x115))))
 (let ((?x275 (* (- 1) (* r00 y00 y00 ?x107 ?x107 ?x107 ?x107 ?x107 ?x107 ?x115 ?x115 ?x115))))
 (let ((?x233 (* y00 y00 ?x107 ?x107 ?x107 ?x107 ?x107 ?x107 ?x107 ?x115 ?x115)))
 (let ((?x189 (* y00 ?x107 ?x107 ?x107 ?x107 ?x107 ?x107 ?x115 ?x115 ?x115 ?x115 ?x115 ?x115)))
 (let ((?x119 (* y00 y00 ?x107 ?x107 ?x107 ?x107 ?x107 ?x107 ?x115 ?x115 ?x115 ?x115)))
 (let ((?x162 (* (- 1) (* r00 y00 ?x107 ?x107 ?x107 ?x107 ?x107 ?x107 ?x115 ?x115))))
 (let ((?x259 (* y00 ?x107 ?x107 ?x107 ?x107 ?x107 ?x107 ?x115 ?x115)))
 (let ((?x324 (* q00 y00 y00 y00 ?x107 ?x107 ?x107 ?x107 ?x107 ?x107 ?x115 ?x115 ?x115)))
 (let ((?x502 (* (- 1) ?x324)))
 (let ((?x231 (* ?x107 ?x107 ?x107 ?x107 ?x107 ?x107 ?x115 ?x115 ?x115 ?x115)))
 (let ((?x270 (* y00 y00 y00 ?x107 ?x107 ?x107 ?x107 ?x107 ?x107 ?x107 ?x115 ?x115)))
 (let ((?x344 (* y00 y00 ?x107 ?x107 ?x107 ?x107 ?x107 ?x107 ?x107 ?x115)))
 (let ((?x676 (+ ?x344 ?x270 ?x231 ?x502 ?x259 ?x162 ?x119 ?x189 ?x233 ?x275 ?x179 ?x165 ?x143 ?x453 ?x460 ?x491 ?x506 ?x507 ?x547 ?x553 ?x619 ?x611 ?x598 ?x305 ?x250 ?x395 ?x408 ?x427 ?x624 ?x565 ?x649 ?x670)))
 (let (($x128 (not (= ?x676 0))))
 (let (($x577 (= (+ r (* (- 1) r00) (* (- 1) (* q00 y00)) (* y00 q)) 0)))
 (and (= (+ y00 (* (- 1) y)) 0) $x577 $x128))))))))))))))))))))))))))))))))))))))))))) :qid k!29))
 ))
 (let ((?x149 (lambda ((q Int) (r Int) (y Int) )(let ((?x109 (* (- 1) y00)))
 (let ((?x115 (+ r ?x109)))
 (let ((?x107 (+ 1 q)))
 (let ((?x662 (* r00 y00 ?x107 ?x107 ?x107 ?x107 ?x107 ?x107 ?x115 ?x115 ?x115 ?x115 ?x115)))
 (let ((?x670 (* (- 1) ?x662)))
 (let ((?x649 (* (- 1) (* r00 y00 y00 ?x107 ?x107 ?x107 ?x107 ?x107 ?x107 ?x115 ?x115))))
 (let ((?x624 (* y00 y00 y00 ?x107 ?x107 ?x107 ?x107 ?x107 ?x107 ?x107 ?x115 ?x115 ?x115)))
 (let ((?x619 (* y00 y00 ?x107 ?x107 ?x107 ?x107 ?x107 ?x107 ?x115 ?x115 ?x115)))
 (let ((?x611 (* y00 ?x107 ?x107 ?x107 ?x107 ?x107 ?x107 ?x115 ?x115 ?x115)))
 (let ((?x598 (* y00 y00 ?x107 ?x107 ?x107 ?x107 ?x107 ?x107 ?x107 ?x115 ?x115 ?x115 ?x115)))
 (let ((?x547 (* (- 1) (* r00 y00 ?x107 ?x107 ?x107 ?x107 ?x107 ?x107 ?x115 ?x115 ?x115 ?x115))))
 (let ((?x565 (* ?x107 ?x107 ?x107 ?x107 ?x107 ?x107 ?x115 ?x115 ?x115 ?x115 ?x115)))
 (let ((?x305 (* (- 1) (* q00 y00 ?x107 ?x107 ?x107 ?x107 ?x107 ?x107 ?x115 ?x115 ?x115 ?x115))))
 (let ((?x553 (* y00 ?x107 ?x107 ?x107 ?x107 ?x107 ?x107 ?x115 ?x115 ?x115 ?x115 ?x115)))
 (let ((?x518 (* q00 y00 y00 ?x107 ?x107 ?x107 ?x107 ?x107 ?x107 ?x115 ?x115 ?x115 ?x115)))
 (let ((?x507 (* (- 1) ?x518)))
 (let ((?x506 (* y00 y00 ?x107 ?x107 ?x107 ?x107 ?x107 ?x107 ?x107 ?x115 ?x115 ?x115 ?x115 ?x115)))
 (let ((?x491 (* (- 1) (* r00 y00 ?x107 ?x107 ?x107 ?x107 ?x107 ?x107 ?x115))))
 (let ((?x423 (* q00 y00 y00 ?x107 ?x107 ?x107 ?x107 ?x107 ?x107 ?x115 ?x115 ?x115 ?x115 ?x115)))
 (let ((?x427 (* (- 1) ?x423)))
 (let ((?x408 (* y00 ?x107 ?x107 ?x107 ?x107 ?x107 ?x107 ?x107 ?x115 ?x115 ?x115)))
 (let ((?x143 (* (- 1) (* r00 ?x107 ?x107 ?x107 ?x107 ?x107 ?x107 ?x115 ?x115 ?x115))))
 (let ((?x344 (* y00 y00 ?x107 ?x107 ?x107 ?x107 ?x107 ?x107 ?x107 ?x115)))
 (let ((?x324 (* q00 y00 y00 y00 ?x107 ?x107 ?x107 ?x107 ?x107 ?x107 ?x115 ?x115 ?x115)))
 (let ((?x502 (* (- 1) ?x324)))
 (let ((?x179 (* (- 1) (* q00 y00 ?x107 ?x107 ?x107 ?x107 ?x107 ?x107 ?x115 ?x115 ?x115))))
 (let ((?x275 (* (- 1) (* r00 y00 y00 ?x107 ?x107 ?x107 ?x107 ?x107 ?x107 ?x115 ?x115 ?x115))))
 (let ((?x270 (* y00 y00 y00 ?x107 ?x107 ?x107 ?x107 ?x107 ?x107 ?x107 ?x115 ?x115)))
 (let ((?x259 (* y00 ?x107 ?x107 ?x107 ?x107 ?x107 ?x107 ?x115 ?x115)))
 (let ((?x395 (* (- 1) (* q00 y00 y00 ?x107 ?x107 ?x107 ?x107 ?x107 ?x107 ?x115 ?x115))))
 (let ((?x233 (* y00 y00 ?x107 ?x107 ?x107 ?x107 ?x107 ?x107 ?x107 ?x115 ?x115)))
 (let ((?x231 (* ?x107 ?x107 ?x107 ?x107 ?x107 ?x107 ?x115 ?x115 ?x115 ?x115)))
 (let ((?x250 (* (- 1) (* r00 ?x107 ?x107 ?x107 ?x107 ?x107 ?x107 ?x115 ?x115 ?x115 ?x115))))
 (let ((?x162 (* (- 1) (* r00 y00 ?x107 ?x107 ?x107 ?x107 ?x107 ?x107 ?x115 ?x115))))
 (let ((?x189 (* y00 ?x107 ?x107 ?x107 ?x107 ?x107 ?x107 ?x115 ?x115 ?x115 ?x115 ?x115 ?x115)))
 (let ((?x460 (* (- 1) (* q00 y00 y00 ?x107 ?x107 ?x107 ?x107 ?x107 ?x107 ?x115))))
 (let ((?x165 (* y00 ?x107 ?x107 ?x107 ?x107 ?x107 ?x107 ?x107 ?x115 ?x115 ?x115 ?x115)))
 (let ((?x453 (* (- 1) (* q00 y00 y00 y00 ?x107 ?x107 ?x107 ?x107 ?x107 ?x107 ?x115 ?x115))))
 (let ((?x119 (* y00 y00 ?x107 ?x107 ?x107 ?x107 ?x107 ?x107 ?x115 ?x115 ?x115 ?x115)))
 (let ((?x225 (+ ?x119 ?x453 ?x165 ?x460 ?x189 ?x162 ?x250 ?x231 ?x233 ?x395 ?x259 ?x270 ?x275 ?x179 ?x502 ?x344 ?x143 ?x408 ?x427 ?x491 ?x506 ?x507 ?x553 ?x305 ?x565 ?x547 ?x598 ?x611 ?x619 ?x624 ?x649 ?x670)))
 (let (($x141 (= (+ r (* (- 1) r00) (* q y00) (* (- 1) (* y00 q00))) 0)))
 (let (($x118 (= (+ y ?x109) 0)))
 (let (($x615 (and $x118 $x141 (not (= ?x225 0)))))
 (let ((?x676 (+ ?x344 ?x270 ?x231 ?x502 ?x259 ?x162 ?x119 ?x189 ?x233 ?x275 ?x179 ?x165 ?x143 ?x453 ?x460 ?x491 ?x506 ?x507 ?x547 ?x553 ?x619 ?x611 ?x598 ?x305 ?x250 ?x395 ?x408 ?x427 ?x624 ?x565 ?x649 ?x670)))
 (let (($x128 (not (= ?x676 0))))
 (let (($x577 (= (+ r (* (- 1) r00) (* (- 1) (* q00 y00)) (* y00 q)) 0)))
 (let (($x554 (and (= (+ y00 (* (- 1) y)) 0) $x577 $x128)))
 (rewrite (= $x554 $x615))))))))))))))))))))))))))))))))))))))))))))))))))
 ))
 (let (($x130 (exists ((q Int) (r Int) (y Int) )(! (let ((?x109 (* (- 1) y00)))
 (let ((?x115 (+ r ?x109)))
 (let ((?x107 (+ 1 q)))
 (let ((?x662 (* r00 y00 ?x107 ?x107 ?x107 ?x107 ?x107 ?x107 ?x115 ?x115 ?x115 ?x115 ?x115)))
 (let ((?x670 (* (- 1) ?x662)))
 (let ((?x649 (* (- 1) (* r00 y00 y00 ?x107 ?x107 ?x107 ?x107 ?x107 ?x107 ?x115 ?x115))))
 (let ((?x565 (* ?x107 ?x107 ?x107 ?x107 ?x107 ?x107 ?x115 ?x115 ?x115 ?x115 ?x115)))
 (let ((?x624 (* y00 y00 y00 ?x107 ?x107 ?x107 ?x107 ?x107 ?x107 ?x107 ?x115 ?x115 ?x115)))
 (let ((?x423 (* q00 y00 y00 ?x107 ?x107 ?x107 ?x107 ?x107 ?x107 ?x115 ?x115 ?x115 ?x115 ?x115)))
 (let ((?x427 (* (- 1) ?x423)))
 (let ((?x408 (* y00 ?x107 ?x107 ?x107 ?x107 ?x107 ?x107 ?x107 ?x115 ?x115 ?x115)))
 (let ((?x395 (* (- 1) (* q00 y00 y00 ?x107 ?x107 ?x107 ?x107 ?x107 ?x107 ?x115 ?x115))))
 (let ((?x250 (* (- 1) (* r00 ?x107 ?x107 ?x107 ?x107 ?x107 ?x107 ?x115 ?x115 ?x115 ?x115))))
 (let ((?x305 (* (- 1) (* q00 y00 ?x107 ?x107 ?x107 ?x107 ?x107 ?x107 ?x115 ?x115 ?x115 ?x115))))
 (let ((?x598 (* y00 y00 ?x107 ?x107 ?x107 ?x107 ?x107 ?x107 ?x107 ?x115 ?x115 ?x115 ?x115)))
 (let ((?x611 (* y00 ?x107 ?x107 ?x107 ?x107 ?x107 ?x107 ?x115 ?x115 ?x115)))
 (let ((?x619 (* y00 y00 ?x107 ?x107 ?x107 ?x107 ?x107 ?x107 ?x115 ?x115 ?x115)))
 (let ((?x553 (* y00 ?x107 ?x107 ?x107 ?x107 ?x107 ?x107 ?x115 ?x115 ?x115 ?x115 ?x115)))
 (let ((?x547 (* (- 1) (* r00 y00 ?x107 ?x107 ?x107 ?x107 ?x107 ?x107 ?x115 ?x115 ?x115 ?x115))))
 (let ((?x518 (* q00 y00 y00 ?x107 ?x107 ?x107 ?x107 ?x107 ?x107 ?x115 ?x115 ?x115 ?x115)))
 (let ((?x507 (* (- 1) ?x518)))
 (let ((?x506 (* y00 y00 ?x107 ?x107 ?x107 ?x107 ?x107 ?x107 ?x107 ?x115 ?x115 ?x115 ?x115 ?x115)))
 (let ((?x491 (* (- 1) (* r00 y00 ?x107 ?x107 ?x107 ?x107 ?x107 ?x107 ?x115))))
 (let ((?x460 (* (- 1) (* q00 y00 y00 ?x107 ?x107 ?x107 ?x107 ?x107 ?x107 ?x115))))
 (let ((?x453 (* (- 1) (* q00 y00 y00 y00 ?x107 ?x107 ?x107 ?x107 ?x107 ?x107 ?x115 ?x115))))
 (let ((?x143 (* (- 1) (* r00 ?x107 ?x107 ?x107 ?x107 ?x107 ?x107 ?x115 ?x115 ?x115))))
 (let ((?x165 (* y00 ?x107 ?x107 ?x107 ?x107 ?x107 ?x107 ?x107 ?x115 ?x115 ?x115 ?x115)))
 (let ((?x179 (* (- 1) (* q00 y00 ?x107 ?x107 ?x107 ?x107 ?x107 ?x107 ?x115 ?x115 ?x115))))
 (let ((?x275 (* (- 1) (* r00 y00 y00 ?x107 ?x107 ?x107 ?x107 ?x107 ?x107 ?x115 ?x115 ?x115))))
 (let ((?x233 (* y00 y00 ?x107 ?x107 ?x107 ?x107 ?x107 ?x107 ?x107 ?x115 ?x115)))
 (let ((?x189 (* y00 ?x107 ?x107 ?x107 ?x107 ?x107 ?x107 ?x115 ?x115 ?x115 ?x115 ?x115 ?x115)))
 (let ((?x119 (* y00 y00 ?x107 ?x107 ?x107 ?x107 ?x107 ?x107 ?x115 ?x115 ?x115 ?x115)))
 (let ((?x162 (* (- 1) (* r00 y00 ?x107 ?x107 ?x107 ?x107 ?x107 ?x107 ?x115 ?x115))))
 (let ((?x259 (* y00 ?x107 ?x107 ?x107 ?x107 ?x107 ?x107 ?x115 ?x115)))
 (let ((?x324 (* q00 y00 y00 y00 ?x107 ?x107 ?x107 ?x107 ?x107 ?x107 ?x115 ?x115 ?x115)))
 (let ((?x502 (* (- 1) ?x324)))
 (let ((?x231 (* ?x107 ?x107 ?x107 ?x107 ?x107 ?x107 ?x115 ?x115 ?x115 ?x115)))
 (let ((?x270 (* y00 y00 y00 ?x107 ?x107 ?x107 ?x107 ?x107 ?x107 ?x107 ?x115 ?x115)))
 (let ((?x344 (* y00 y00 ?x107 ?x107 ?x107 ?x107 ?x107 ?x107 ?x107 ?x115)))
 (let ((?x676 (+ ?x344 ?x270 ?x231 ?x502 ?x259 ?x162 ?x119 ?x189 ?x233 ?x275 ?x179 ?x165 ?x143 ?x453 ?x460 ?x491 ?x506 ?x507 ?x547 ?x553 ?x619 ?x611 ?x598 ?x305 ?x250 ?x395 ?x408 ?x427 ?x624 ?x565 ?x649 ?x670)))
 (let (($x128 (not (= ?x676 0))))
 (let (($x577 (= (+ r (* (- 1) r00) (* (- 1) (* q00 y00)) (* y00 q)) 0)))
 (and (= (+ ?x109 y) 0) $x577 $x128))))))))))))))))))))))))))))))))))))))))))) :qid k!29))
 ))
 (let ((?x258 (lambda ((q Int) (r Int) (y Int) )(let ((?x109 (* (- 1) y00)))
 (let ((?x115 (+ r ?x109)))
 (let ((?x107 (+ 1 q)))
 (let ((?x662 (* r00 y00 ?x107 ?x107 ?x107 ?x107 ?x107 ?x107 ?x115 ?x115 ?x115 ?x115 ?x115)))
 (let ((?x670 (* (- 1) ?x662)))
 (let ((?x649 (* (- 1) (* r00 y00 y00 ?x107 ?x107 ?x107 ?x107 ?x107 ?x107 ?x115 ?x115))))
 (let ((?x565 (* ?x107 ?x107 ?x107 ?x107 ?x107 ?x107 ?x115 ?x115 ?x115 ?x115 ?x115)))
 (let ((?x624 (* y00 y00 y00 ?x107 ?x107 ?x107 ?x107 ?x107 ?x107 ?x107 ?x115 ?x115 ?x115)))
 (let ((?x423 (* q00 y00 y00 ?x107 ?x107 ?x107 ?x107 ?x107 ?x107 ?x115 ?x115 ?x115 ?x115 ?x115)))
 (let ((?x427 (* (- 1) ?x423)))
 (let ((?x408 (* y00 ?x107 ?x107 ?x107 ?x107 ?x107 ?x107 ?x107 ?x115 ?x115 ?x115)))
 (let ((?x395 (* (- 1) (* q00 y00 y00 ?x107 ?x107 ?x107 ?x107 ?x107 ?x107 ?x115 ?x115))))
 (let ((?x250 (* (- 1) (* r00 ?x107 ?x107 ?x107 ?x107 ?x107 ?x107 ?x115 ?x115 ?x115 ?x115))))
 (let ((?x305 (* (- 1) (* q00 y00 ?x107 ?x107 ?x107 ?x107 ?x107 ?x107 ?x115 ?x115 ?x115 ?x115))))
 (let ((?x598 (* y00 y00 ?x107 ?x107 ?x107 ?x107 ?x107 ?x107 ?x107 ?x115 ?x115 ?x115 ?x115)))
 (let ((?x611 (* y00 ?x107 ?x107 ?x107 ?x107 ?x107 ?x107 ?x115 ?x115 ?x115)))
 (let ((?x619 (* y00 y00 ?x107 ?x107 ?x107 ?x107 ?x107 ?x107 ?x115 ?x115 ?x115)))
 (let ((?x553 (* y00 ?x107 ?x107 ?x107 ?x107 ?x107 ?x107 ?x115 ?x115 ?x115 ?x115 ?x115)))
 (let ((?x547 (* (- 1) (* r00 y00 ?x107 ?x107 ?x107 ?x107 ?x107 ?x107 ?x115 ?x115 ?x115 ?x115))))
 (let ((?x518 (* q00 y00 y00 ?x107 ?x107 ?x107 ?x107 ?x107 ?x107 ?x115 ?x115 ?x115 ?x115)))
 (let ((?x507 (* (- 1) ?x518)))
 (let ((?x506 (* y00 y00 ?x107 ?x107 ?x107 ?x107 ?x107 ?x107 ?x107 ?x115 ?x115 ?x115 ?x115 ?x115)))
 (let ((?x491 (* (- 1) (* r00 y00 ?x107 ?x107 ?x107 ?x107 ?x107 ?x107 ?x115))))
 (let ((?x460 (* (- 1) (* q00 y00 y00 ?x107 ?x107 ?x107 ?x107 ?x107 ?x107 ?x115))))
 (let ((?x453 (* (- 1) (* q00 y00 y00 y00 ?x107 ?x107 ?x107 ?x107 ?x107 ?x107 ?x115 ?x115))))
 (let ((?x143 (* (- 1) (* r00 ?x107 ?x107 ?x107 ?x107 ?x107 ?x107 ?x115 ?x115 ?x115))))
 (let ((?x165 (* y00 ?x107 ?x107 ?x107 ?x107 ?x107 ?x107 ?x107 ?x115 ?x115 ?x115 ?x115)))
 (let ((?x179 (* (- 1) (* q00 y00 ?x107 ?x107 ?x107 ?x107 ?x107 ?x107 ?x115 ?x115 ?x115))))
 (let ((?x275 (* (- 1) (* r00 y00 y00 ?x107 ?x107 ?x107 ?x107 ?x107 ?x107 ?x115 ?x115 ?x115))))
 (let ((?x233 (* y00 y00 ?x107 ?x107 ?x107 ?x107 ?x107 ?x107 ?x107 ?x115 ?x115)))
 (let ((?x189 (* y00 ?x107 ?x107 ?x107 ?x107 ?x107 ?x107 ?x115 ?x115 ?x115 ?x115 ?x115 ?x115)))
 (let ((?x119 (* y00 y00 ?x107 ?x107 ?x107 ?x107 ?x107 ?x107 ?x115 ?x115 ?x115 ?x115)))
 (let ((?x162 (* (- 1) (* r00 y00 ?x107 ?x107 ?x107 ?x107 ?x107 ?x107 ?x115 ?x115))))
 (let ((?x259 (* y00 ?x107 ?x107 ?x107 ?x107 ?x107 ?x107 ?x115 ?x115)))
 (let ((?x324 (* q00 y00 y00 y00 ?x107 ?x107 ?x107 ?x107 ?x107 ?x107 ?x115 ?x115 ?x115)))
 (let ((?x502 (* (- 1) ?x324)))
 (let ((?x231 (* ?x107 ?x107 ?x107 ?x107 ?x107 ?x107 ?x115 ?x115 ?x115 ?x115)))
 (let ((?x270 (* y00 y00 y00 ?x107 ?x107 ?x107 ?x107 ?x107 ?x107 ?x107 ?x115 ?x115)))
 (let ((?x344 (* y00 y00 ?x107 ?x107 ?x107 ?x107 ?x107 ?x107 ?x107 ?x115)))
 (let ((?x676 (+ ?x344 ?x270 ?x231 ?x502 ?x259 ?x162 ?x119 ?x189 ?x233 ?x275 ?x179 ?x165 ?x143 ?x453 ?x460 ?x491 ?x506 ?x507 ?x547 ?x553 ?x619 ?x611 ?x598 ?x305 ?x250 ?x395 ?x408 ?x427 ?x624 ?x565 ?x649 ?x670)))
 (let (($x128 (not (= ?x676 0))))
 (let (($x577 (= (+ r (* (- 1) r00) (* (- 1) (* q00 y00)) (* y00 q)) 0)))
 (let (($x554 (and (= (+ y00 (* (- 1) y)) 0) $x577 $x128)))
 (let (($x537 (and (= (+ ?x109 y) 0) $x577 $x128)))
 (rewrite (= $x537 $x554)))))))))))))))))))))))))))))))))))))))))))))))
 ))
 (let (($x104 (exists ((q Int) (r Int) (y Int) )(! (let ((?x43 (- r y00)))
 (let ((?x42 (+ q 1)))
 (let ((?x97 (* ?x42 ?x42 ?x42 ?x42 ?x42 ?x42 ?x43 ?x43 ?x43 ?x43 ?x43 r00 y00)))
 (let ((?x93 (* ?x42 ?x42 ?x42 ?x42 ?x42 ?x42 ?x42 ?x43 ?x43 ?x43 y00 y00 y00)))
 (let ((?x91 (* ?x42 ?x42 ?x42 ?x42 ?x42 ?x42 q00 ?x43 ?x43 ?x43 ?x43 ?x43 y00 y00)))
 (let ((?x81 (* ?x42 ?x42 ?x42 ?x42 ?x42 ?x42 ?x42 ?x43 ?x43 ?x43 ?x43 y00 y00)))
 (let ((?x74 (* ?x42 ?x42 ?x42 ?x42 ?x42 ?x42 q00 ?x43 ?x43 ?x43 ?x43 y00 y00)))
 (let ((?x72 (* ?x42 ?x42 ?x42 ?x42 ?x42 ?x42 ?x42 ?x43 ?x43 ?x43 ?x43 ?x43 y00 y00)))
 (let ((?x55 (* ?x42 ?x42 ?x42 ?x42 ?x42 ?x42 ?x43 ?x43 ?x43 ?x43 ?x43 ?x43 y00)))
 (let ((?x48 (* ?x42 ?x42 ?x42 ?x42 ?x42 ?x42 q00 ?x43 ?x43 ?x43 y00 y00 y00)))
 (let ((?x47 (+ (* ?x42 ?x42 ?x42 ?x42 ?x42 ?x42 ?x42 ?x43 y00 y00) (* ?x42 ?x42 ?x42 ?x42 ?x42 ?x42 ?x42 ?x43 ?x43 y00 y00 y00) (* ?x42 ?x42 ?x42 ?x42 ?x42 ?x42 ?x43 ?x43 ?x43 ?x43))))
 (let ((?x51 (+ (- ?x47 ?x48) (* ?x42 ?x42 ?x42 ?x42 ?x42 ?x42 ?x43 ?x43 y00))))
 (let ((?x57 (+ (- ?x51 (* ?x42 ?x42 ?x42 ?x42 ?x42 ?x42 ?x43 ?x43 r00 y00)) (* ?x42 ?x42 ?x42 ?x42 ?x42 ?x42 ?x43 ?x43 ?x43 ?x43 y00 y00) ?x55 (* ?x42 ?x42 ?x42 ?x42 ?x42 ?x42 ?x42 ?x43 ?x43 y00 y00))))
 (let ((?x60 (- ?x57 (* ?x42 ?x42 ?x42 ?x42 ?x42 ?x42 ?x43 ?x43 ?x43 r00 y00 y00))))
 (let ((?x61 (- ?x60 (* ?x42 ?x42 ?x42 ?x42 ?x42 ?x42 q00 ?x43 ?x43 ?x43 y00))))
 (let ((?x63 (+ ?x61 (* ?x42 ?x42 ?x42 ?x42 ?x42 ?x42 ?x42 ?x43 ?x43 ?x43 ?x43 y00))))
 (let ((?x69 (- (- ?x63 (* ?x42 ?x42 ?x42 ?x42 ?x42 ?x42 ?x43 ?x43 ?x43 r00)) (* ?x42 ?x42 ?x42 ?x42 ?x42 ?x42 q00 ?x43 ?x43 y00 y00 y00))))
 (let ((?x71 (- (- ?x69 (* ?x42 ?x42 ?x42 ?x42 ?x42 ?x42 q00 ?x43 y00 y00)) (* ?x42 ?x42 ?x42 ?x42 ?x42 ?x42 ?x43 r00 y00))))
 (let ((?x77 (- (- (+ ?x71 ?x72) ?x74) (* ?x42 ?x42 ?x42 ?x42 ?x42 ?x42 ?x43 ?x43 ?x43 ?x43 r00 y00))))
 (let ((?x82 (+ ?x77 (* ?x42 ?x42 ?x42 ?x42 ?x42 ?x42 ?x43 ?x43 ?x43 ?x43 ?x43 y00) (* ?x42 ?x42 ?x42 ?x42 ?x42 ?x42 ?x43 ?x43 ?x43 y00 y00) (* ?x42 ?x42 ?x42 ?x42 ?x42 ?x42 ?x43 ?x43 ?x43 y00) ?x81)))
 (let ((?x86 (- ?x82 (* ?x42 ?x42 ?x42 ?x42 ?x42 ?x42 q00 ?x43 ?x43 ?x43 ?x43 y00))))
 (let ((?x87 (- ?x86 (* ?x42 ?x42 ?x42 ?x42 ?x42 ?x42 ?x43 ?x43 ?x43 ?x43 r00))))
 (let ((?x88 (- ?x87 (* ?x42 ?x42 ?x42 ?x42 ?x42 ?x42 q00 ?x43 ?x43 y00 y00))))
 (let ((?x90 (+ ?x88 (* ?x42 ?x42 ?x42 ?x42 ?x42 ?x42 ?x42 ?x43 ?x43 ?x43 y00))))
 (let ((?x95 (+ (- ?x90 ?x91) ?x93 (* ?x42 ?x42 ?x42 ?x42 ?x42 ?x42 ?x43 ?x43 ?x43 ?x43 ?x43))))
 (let ((?x98 (- ?x95 (* ?x42 ?x42 ?x42 ?x42 ?x42 ?x42 ?x43 ?x43 r00 y00 y00))))
 (and (= (+ (* (- 1) y00) y) 0) (= (+ (- (- r r00) (* q00 y00)) (* q y00)) 0) (or (not (= (- ?x98 ?x97) 0)))))))))))))))))))))))))))))) :qid k!29))
 ))
 (let ((?x123 (lambda ((q Int) (r Int) (y Int) )(let ((?x109 (* (- 1) y00)))
 (let ((?x115 (+ r ?x109)))
 (let ((?x107 (+ 1 q)))
 (let ((?x662 (* r00 y00 ?x107 ?x107 ?x107 ?x107 ?x107 ?x107 ?x115 ?x115 ?x115 ?x115 ?x115)))
 (let ((?x670 (* (- 1) ?x662)))
 (let ((?x649 (* (- 1) (* r00 y00 y00 ?x107 ?x107 ?x107 ?x107 ?x107 ?x107 ?x115 ?x115))))
 (let ((?x565 (* ?x107 ?x107 ?x107 ?x107 ?x107 ?x107 ?x115 ?x115 ?x115 ?x115 ?x115)))
 (let ((?x624 (* y00 y00 y00 ?x107 ?x107 ?x107 ?x107 ?x107 ?x107 ?x107 ?x115 ?x115 ?x115)))
 (let ((?x423 (* q00 y00 y00 ?x107 ?x107 ?x107 ?x107 ?x107 ?x107 ?x115 ?x115 ?x115 ?x115 ?x115)))
 (let ((?x427 (* (- 1) ?x423)))
 (let ((?x408 (* y00 ?x107 ?x107 ?x107 ?x107 ?x107 ?x107 ?x107 ?x115 ?x115 ?x115)))
 (let ((?x395 (* (- 1) (* q00 y00 y00 ?x107 ?x107 ?x107 ?x107 ?x107 ?x107 ?x115 ?x115))))
 (let ((?x250 (* (- 1) (* r00 ?x107 ?x107 ?x107 ?x107 ?x107 ?x107 ?x115 ?x115 ?x115 ?x115))))
 (let ((?x305 (* (- 1) (* q00 y00 ?x107 ?x107 ?x107 ?x107 ?x107 ?x107 ?x115 ?x115 ?x115 ?x115))))
 (let ((?x598 (* y00 y00 ?x107 ?x107 ?x107 ?x107 ?x107 ?x107 ?x107 ?x115 ?x115 ?x115 ?x115)))
 (let ((?x611 (* y00 ?x107 ?x107 ?x107 ?x107 ?x107 ?x107 ?x115 ?x115 ?x115)))
 (let ((?x619 (* y00 y00 ?x107 ?x107 ?x107 ?x107 ?x107 ?x107 ?x115 ?x115 ?x115)))
 (let ((?x553 (* y00 ?x107 ?x107 ?x107 ?x107 ?x107 ?x107 ?x115 ?x115 ?x115 ?x115 ?x115)))
 (let ((?x547 (* (- 1) (* r00 y00 ?x107 ?x107 ?x107 ?x107 ?x107 ?x107 ?x115 ?x115 ?x115 ?x115))))
 (let ((?x518 (* q00 y00 y00 ?x107 ?x107 ?x107 ?x107 ?x107 ?x107 ?x115 ?x115 ?x115 ?x115)))
 (let ((?x507 (* (- 1) ?x518)))
 (let ((?x506 (* y00 y00 ?x107 ?x107 ?x107 ?x107 ?x107 ?x107 ?x107 ?x115 ?x115 ?x115 ?x115 ?x115)))
 (let ((?x491 (* (- 1) (* r00 y00 ?x107 ?x107 ?x107 ?x107 ?x107 ?x107 ?x115))))
 (let ((?x460 (* (- 1) (* q00 y00 y00 ?x107 ?x107 ?x107 ?x107 ?x107 ?x107 ?x115))))
 (let ((?x453 (* (- 1) (* q00 y00 y00 y00 ?x107 ?x107 ?x107 ?x107 ?x107 ?x107 ?x115 ?x115))))
 (let ((?x143 (* (- 1) (* r00 ?x107 ?x107 ?x107 ?x107 ?x107 ?x107 ?x115 ?x115 ?x115))))
 (let ((?x165 (* y00 ?x107 ?x107 ?x107 ?x107 ?x107 ?x107 ?x107 ?x115 ?x115 ?x115 ?x115)))
 (let ((?x179 (* (- 1) (* q00 y00 ?x107 ?x107 ?x107 ?x107 ?x107 ?x107 ?x115 ?x115 ?x115))))
 (let ((?x275 (* (- 1) (* r00 y00 y00 ?x107 ?x107 ?x107 ?x107 ?x107 ?x107 ?x115 ?x115 ?x115))))
 (let ((?x233 (* y00 y00 ?x107 ?x107 ?x107 ?x107 ?x107 ?x107 ?x107 ?x115 ?x115)))
 (let ((?x189 (* y00 ?x107 ?x107 ?x107 ?x107 ?x107 ?x107 ?x115 ?x115 ?x115 ?x115 ?x115 ?x115)))
 (let ((?x119 (* y00 y00 ?x107 ?x107 ?x107 ?x107 ?x107 ?x107 ?x115 ?x115 ?x115 ?x115)))
 (let ((?x162 (* (- 1) (* r00 y00 ?x107 ?x107 ?x107 ?x107 ?x107 ?x107 ?x115 ?x115))))
 (let ((?x259 (* y00 ?x107 ?x107 ?x107 ?x107 ?x107 ?x107 ?x115 ?x115)))
 (let ((?x324 (* q00 y00 y00 y00 ?x107 ?x107 ?x107 ?x107 ?x107 ?x107 ?x115 ?x115 ?x115)))
 (let ((?x502 (* (- 1) ?x324)))
 (let ((?x231 (* ?x107 ?x107 ?x107 ?x107 ?x107 ?x107 ?x115 ?x115 ?x115 ?x115)))
 (let ((?x270 (* y00 y00 y00 ?x107 ?x107 ?x107 ?x107 ?x107 ?x107 ?x107 ?x115 ?x115)))
 (let ((?x344 (* y00 y00 ?x107 ?x107 ?x107 ?x107 ?x107 ?x107 ?x107 ?x115)))
 (let ((?x676 (+ ?x344 ?x270 ?x231 ?x502 ?x259 ?x162 ?x119 ?x189 ?x233 ?x275 ?x179 ?x165 ?x143 ?x453 ?x460 ?x491 ?x506 ?x507 ?x547 ?x553 ?x619 ?x611 ?x598 ?x305 ?x250 ?x395 ?x408 ?x427 ?x624 ?x565 ?x649 ?x670)))
 (let (($x128 (not (= ?x676 0))))
 (let (($x577 (= (+ r (* (- 1) r00) (* (- 1) (* q00 y00)) (* y00 q)) 0)))
 (let (($x537 (and (= (+ ?x109 y) 0) $x577 $x128)))
 (let ((?x43 (- r y00)))
 (let ((?x42 (+ q 1)))
 (let ((?x97 (* ?x42 ?x42 ?x42 ?x42 ?x42 ?x42 ?x43 ?x43 ?x43 ?x43 ?x43 r00 y00)))
 (let ((?x93 (* ?x42 ?x42 ?x42 ?x42 ?x42 ?x42 ?x42 ?x43 ?x43 ?x43 y00 y00 y00)))
 (let ((?x91 (* ?x42 ?x42 ?x42 ?x42 ?x42 ?x42 q00 ?x43 ?x43 ?x43 ?x43 ?x43 y00 y00)))
 (let ((?x81 (* ?x42 ?x42 ?x42 ?x42 ?x42 ?x42 ?x42 ?x43 ?x43 ?x43 ?x43 y00 y00)))
 (let ((?x74 (* ?x42 ?x42 ?x42 ?x42 ?x42 ?x42 q00 ?x43 ?x43 ?x43 ?x43 y00 y00)))
 (let ((?x72 (* ?x42 ?x42 ?x42 ?x42 ?x42 ?x42 ?x42 ?x43 ?x43 ?x43 ?x43 ?x43 y00 y00)))
 (let ((?x55 (* ?x42 ?x42 ?x42 ?x42 ?x42 ?x42 ?x43 ?x43 ?x43 ?x43 ?x43 ?x43 y00)))
 (let ((?x48 (* ?x42 ?x42 ?x42 ?x42 ?x42 ?x42 q00 ?x43 ?x43 ?x43 y00 y00 y00)))
 (let ((?x47 (+ (* ?x42 ?x42 ?x42 ?x42 ?x42 ?x42 ?x42 ?x43 y00 y00) (* ?x42 ?x42 ?x42 ?x42 ?x42 ?x42 ?x42 ?x43 ?x43 y00 y00 y00) (* ?x42 ?x42 ?x42 ?x42 ?x42 ?x42 ?x43 ?x43 ?x43 ?x43))))
 (let ((?x51 (+ (- ?x47 ?x48) (* ?x42 ?x42 ?x42 ?x42 ?x42 ?x42 ?x43 ?x43 y00))))
 (let ((?x57 (+ (- ?x51 (* ?x42 ?x42 ?x42 ?x42 ?x42 ?x42 ?x43 ?x43 r00 y00)) (* ?x42 ?x42 ?x42 ?x42 ?x42 ?x42 ?x43 ?x43 ?x43 ?x43 y00 y00) ?x55 (* ?x42 ?x42 ?x42 ?x42 ?x42 ?x42 ?x42 ?x43 ?x43 y00 y00))))
 (let ((?x60 (- ?x57 (* ?x42 ?x42 ?x42 ?x42 ?x42 ?x42 ?x43 ?x43 ?x43 r00 y00 y00))))
 (let ((?x61 (- ?x60 (* ?x42 ?x42 ?x42 ?x42 ?x42 ?x42 q00 ?x43 ?x43 ?x43 y00))))
 (let ((?x63 (+ ?x61 (* ?x42 ?x42 ?x42 ?x42 ?x42 ?x42 ?x42 ?x43 ?x43 ?x43 ?x43 y00))))
 (let ((?x69 (- (- ?x63 (* ?x42 ?x42 ?x42 ?x42 ?x42 ?x42 ?x43 ?x43 ?x43 r00)) (* ?x42 ?x42 ?x42 ?x42 ?x42 ?x42 q00 ?x43 ?x43 y00 y00 y00))))
 (let ((?x71 (- (- ?x69 (* ?x42 ?x42 ?x42 ?x42 ?x42 ?x42 q00 ?x43 y00 y00)) (* ?x42 ?x42 ?x42 ?x42 ?x42 ?x42 ?x43 r00 y00))))
 (let ((?x77 (- (- (+ ?x71 ?x72) ?x74) (* ?x42 ?x42 ?x42 ?x42 ?x42 ?x42 ?x43 ?x43 ?x43 ?x43 r00 y00))))
 (let ((?x82 (+ ?x77 (* ?x42 ?x42 ?x42 ?x42 ?x42 ?x42 ?x43 ?x43 ?x43 ?x43 ?x43 y00) (* ?x42 ?x42 ?x42 ?x42 ?x42 ?x42 ?x43 ?x43 ?x43 y00 y00) (* ?x42 ?x42 ?x42 ?x42 ?x42 ?x42 ?x43 ?x43 ?x43 y00) ?x81)))
 (let ((?x86 (- ?x82 (* ?x42 ?x42 ?x42 ?x42 ?x42 ?x42 q00 ?x43 ?x43 ?x43 ?x43 y00))))
 (let ((?x87 (- ?x86 (* ?x42 ?x42 ?x42 ?x42 ?x42 ?x42 ?x43 ?x43 ?x43 ?x43 r00))))
 (let ((?x88 (- ?x87 (* ?x42 ?x42 ?x42 ?x42 ?x42 ?x42 q00 ?x43 ?x43 y00 y00))))
 (let ((?x90 (+ ?x88 (* ?x42 ?x42 ?x42 ?x42 ?x42 ?x42 ?x42 ?x43 ?x43 ?x43 y00))))
 (let ((?x95 (+ (- ?x90 ?x91) ?x93 (* ?x42 ?x42 ?x42 ?x42 ?x42 ?x42 ?x43 ?x43 ?x43 ?x43 ?x43))))
 (let ((?x98 (- ?x95 (* ?x42 ?x42 ?x42 ?x42 ?x42 ?x42 ?x43 ?x43 r00 y00 y00))))
 (let (($x103 (and (= (+ (* (- 1) y00) y) 0) (= (+ (- (- r r00) (* q00 y00)) (* q y00)) 0) (or (not (= (- ?x98 ?x97) 0))))))
 (rewrite (= $x103 $x537)))))))))))))))))))))))))))))))))))))))))))))))))))))))))))))))))))))))))
 ))
 (let ((@x105 (asserted $x104)))
 (let ((@x402 (mp (mp @x105 (quant-intro (proof-bind ?x123) (= $x104 $x130)) $x130) (rewrite (= $x130 $x130)) $x130)))
 (let ((@x372 (mp (mp @x402 (quant-intro (proof-bind ?x258) (= $x130 $x337)) $x337) (quant-intro (proof-bind ?x149) (= $x337 $x201)) $x201)))
 (let ((@x287 (mp (mp~ @x372 (sk (~ $x201 $x202)) $x202) (rewrite (= $x202 $x185)) $x185)))
 (let ((@x482 (and-elim @x287 $x444)))
 (let ((@x407 (unit-resolution ((_ th-lemma arith triangle-eq) (or (not $x444) $x367)) @x482 $x367)))
 (let (($x465 (>= ?x650 0)))
 (let ((@x510 (unit-resolution ((_ th-lemma arith triangle-eq) (or (not $x444) $x465)) @x482 $x465)))
 (let (($x479 (<= ?x177 0)))
 (let ((@x183 (and-elim @x287 $x519)))
 (let ((@x523 (unit-resolution ((_ th-lemma arith triangle-eq) (or (not $x519) $x479)) @x183 $x479)))
 (let (($x222 (>= ?x177 0)))
 (let ((@x601 (unit-resolution ((_ th-lemma arith triangle-eq) (or (not $x519) $x222)) @x183 $x222)))
 (let (($x607 (not (<= ?x400 0))))
 (let (($x466 (>= ?x400 0)))
 (let ((@x608 ((_ th-lemma arith) (hypothesis (not $x466)) @x601 @x523 @x601 @x523 @x510 @x407 false)))
 (let ((@x391 (unit-resolution ((_ th-lemma arith triangle-eq) (or $x186 $x607 (not $x466))) (and-elim @x287 $x180) (or $x607 (not $x466)))))
 ((_ th-lemma arith) (unit-resolution @x391 (lemma @x608 $x466) $x607) @x601 @x523 @x601 @x523 @x510 @x407 false)))))))))))))))))))))))))))))))))))))))))))))))))))))))))))))))))))))))))))

(:added-eqs                 3
 :arith-assert-diseq        1
 :arith-assert-lower        8
 :arith-assert-upper        4
 :arith-conflicts           2
 :arith-eq-adapter          3
 :arith-grobner             2
 :arith-max-min             316
 :arith-nonlinear-bounds    4
 :arith-nonlinear-horner    10
 :arith-num-rows            5
 :arith-offset-eqs          1
 :arith-pivots              3
 :arith-row-summations      1
 :arith-tableau-max-columns 48
 :arith-tableau-max-rows    5
 :conflicts                 2
 :decisions                 1
 :del-clause                10
 :final-checks              4
 :max-memory                3.72
 :memory                    3.27
 :mk-bool-var               15
 :mk-clause                 10
 :num-allocs                1317789
 :num-checks                1
 :propagations              6
 :rlimit-count              5637
 :time                      0.02
 :total-time                0.03)
